Gurobi Optimizer version 9.1.2 build v9.1.2rc0 (linux64)
Thread count: 36 physical cores, 72 logical processors, using up to 32 threads
Optimize a model with 12 rows, 57 columns and 590 nonzeros
Model fingerprint: 0xf32eec78
Model has 47 quadratic constraints
Coefficient statistics:
  Matrix range     [2e-05, 3e+00]
  QMatrix range    [1e+00, 1e+00]
  QLMatrix range   [1e+00, 1e+00]
  Objective range  [8e-03, 7e-01]
  Bounds range     [1e+00, 1e+00]
  RHS range        [1e+00, 1e+00]
Presolve removed 9 rows and 0 columns

Continuous model is non-convex -- solving as a MIP.

Presolve removed 9 rows and 0 columns
Presolve time: 0.00s
Presolved: 189 rows, 57 columns, 443 nonzeros
Presolved model has 47 bilinear constraint(s)
Variable types: 57 continuous, 0 integer (0 binary)

Root relaxation: objective -1.743721e+00, 44 iterations, 0.00 seconds

    Nodes    |    Current Node    |     Objective Bounds      |     Work
 Expl Unexpl |  Obj  Depth IntInf | Incumbent    BestBd   Gap | It/Node Time

     0     0   -1.74372    0   38          -   -1.74372      -     -    0s
H    0     0                       0.6147548   -1.74372   384%     -    0s
     0     0   -1.64739    0    1    0.61475   -1.64739   368%     -    0s
H    0     0                      -1.6450460   -1.64739  0.14%     -    0s
     0     0     cutoff    0        -1.64505   -1.64505  0.00%     -    0s

Cutting planes:
  RLT: 25
  BQP: 3

Explored 1 nodes (76 simplex iterations) in 0.01 seconds
Thread count was 32 (of 72 available processors)

Solution count 2: -1.64505 0.614755 
No other solutions better than -1.64505

Optimal solution found (tolerance 1.00e-04)
Best objective -1.645045978473e+00, best bound -1.645045978473e+00, gap 0.0000%

User-callback calls 78, time in user-callback 0.00 sec
Gurobi Optimizer version 9.1.2 build v9.1.2rc0 (linux64)
Thread count: 36 physical cores, 72 logical processors, using up to 32 threads
Optimize a model with 60 rows, 312 columns and 16100 nonzeros
Model fingerprint: 0x5f7f33bd
Model has 262 quadratic constraints
Coefficient statistics:
  Matrix range     [4e-07, 7e+00]
  QMatrix range    [1e+00, 1e+00]
  QLMatrix range   [1e+00, 1e+00]
  Objective range  [6e-04, 8e-01]
  Bounds range     [1e+00, 1e+00]
  RHS range        [1e+00, 1e+00]
Presolve removed 16 rows and 0 columns

Continuous model is non-convex -- solving as a MIP.

Presolve removed 16 rows and 0 columns
Presolve time: 0.01s
Presolved: 1080 rows, 312 columns, 13136 nonzeros
Presolved model has 262 bilinear constraint(s)
Variable types: 312 continuous, 0 integer (0 binary)

Root relaxation: objective -1.320492e+01, 312 iterations, 0.02 seconds

    Nodes    |    Current Node    |     Objective Bounds      |     Work
 Expl Unexpl |  Obj  Depth IntInf | Incumbent    BestBd   Gap | It/Node Time

     0     0  -13.20492    0  128          -  -13.20492      -     -    0s
     0     0  -12.84794    0   71          -  -12.84794      -     -    0s
     0     0  -12.82681    0   55          -  -12.82681      -     -    0s
     0     0  -12.77562    0   51          -  -12.77562      -     -    0s
     0     0  -12.77562    0   51          -  -12.77562      -     -    0s
     0     0  -12.77179    0   55          -  -12.77179      -     -    0s
     0     0  -12.76717    0   55          -  -12.76717      -     -    0s
     0     0  -12.76533    0   55          -  -12.76533      -     -    0s
     0     2  -12.76533    0   55          -  -12.76533      -     -    0s
* 1753  1876              35     -12.4167048  -12.54482  1.03%  30.7    1s
* 2706  1897              68     -12.4178306  -12.51491  0.78%  28.6    1s
* 2807  1913              48     -12.4215146  -12.51491  0.75%  28.3    1s
* 4242   953              60     -12.4304794  -12.51491  0.68%  27.6    2s
* 4384   836              60     -12.4305215  -12.51491  0.68%  27.0    2s
* 4568   865              55     -12.4406206  -12.51491  0.60%  26.4    2s
* 5123   719              49     -12.4406832  -12.51491  0.60%  24.9    2s
* 5406   927              56     -12.4407677  -12.51491  0.60%  24.2    2s
* 5408   927              55     -12.4408225  -12.51491  0.60%  24.2    2s
* 5438   927              54     -12.4408357  -12.51491  0.60%  24.2    2s
* 5440   927              55     -12.4409496  -12.51491  0.59%  24.2    2s
* 5442   927              56     -12.4409507  -12.51491  0.59%  24.2    2s
* 5514  1003              61     -12.4499044  -12.51491  0.52%  24.0    2s
* 5516  1003              62     -12.4500016  -12.51491  0.52%  23.9    2s
* 5872   990              66     -12.4502254  -12.51491  0.52%  23.1    2s
* 6156  1080              64     -12.4502435  -12.51491  0.52%  22.6    2s
* 6337  1139              57     -12.4507363  -12.51491  0.52%  22.2    2s
* 6505  1215              57     -12.4507729  -12.51491  0.52%  21.8    3s
* 6691  1296              71     -12.4516610  -12.51491  0.51%  21.5    3s
* 6692  1296              71     -12.4516611  -12.51491  0.51%  21.5    3s
* 6693  1296              70     -12.4516614  -12.51491  0.51%  21.5    3s
* 6915  1331              67     -12.4517537  -12.51491  0.51%  21.1    3s
* 6916  1331              67     -12.4517558  -12.51491  0.51%  21.1    3s
* 7113  1409              67     -12.4517945  -12.51491  0.51%  20.8    3s
* 7324  1513              62     -12.4542763  -12.51491  0.49%  20.4    3s
* 8028  1730              59     -12.4543116  -12.50241  0.39%  19.3    3s
* 8029  1730              59     -12.4544186  -12.50241  0.39%  19.3    3s
* 8091  1730              61     -12.4560997  -12.50241  0.37%  19.2    3s
* 8092  1730              61     -12.4561888  -12.50241  0.37%  19.2    3s
* 8093  1730              60     -12.4564182  -12.50241  0.37%  19.2    3s
* 8631  1790              59     -12.4566006  -12.48256  0.21%  18.8    3s
* 8720  1790              63     -12.4566072  -12.48256  0.21%  18.6    3s
* 8721  1790              63     -12.4566171  -12.48256  0.21%  18.6    3s
* 8723  1790              63     -12.4567315  -12.48256  0.21%  18.6    3s
* 8724  1790              63     -12.4567355  -12.48256  0.21%  18.6    3s
* 9023  1768              59     -12.4567809  -12.47978  0.18%  18.3    3s
* 9027  1768              59     -12.4568138  -12.47978  0.18%  18.3    3s
* 9073  1768              61     -12.4569582  -12.47978  0.18%  18.3    3s
* 9335  1800              57     -12.4570820  -12.47978  0.18%  18.0    3s
* 9359  1800              62     -12.4572356  -12.47978  0.18%  18.0    3s
* 9361  1800              63     -12.4572545  -12.47978  0.18%  17.9    3s
* 9387  1800              64     -12.4572662  -12.47978  0.18%  17.9    3s
* 9389  1800              65     -12.4572699  -12.47978  0.18%  17.9    3s
* 9392  1800              64     -12.4574343  -12.47978  0.18%  17.9    3s
* 9511  1759              63     -12.4575675  -12.46355  0.05%  17.8    3s
* 9914  1692              64     -12.4576293  -12.46181  0.03%  17.4    3s
*10296  1694              64     -12.4576344  -12.46059  0.02%  17.1    3s
*10384  1694              58     -12.4576699  -12.46059  0.02%  17.0    3s
*10421  1694              63     -12.4577293  -12.46059  0.02%  17.0    3s
*10740  1591              60     -12.4577441  -12.46059  0.02%  16.6    4s
*10814  1591              61     -12.4577524  -12.46059  0.02%  16.5    4s
*10816  1591              60     -12.4577528  -12.46059  0.02%  16.5    4s
*11290  1345              63     -12.4577534  -12.46059  0.02%  16.0    4s
*11291  1345              63     -12.4577536  -12.46059  0.02%  16.0    4s
*12266   974              63     -12.4577537  -12.46030  0.02%  15.0    4s
*12562   532              60     -12.4577538  -12.45848  0.01%  14.7    4s
*12955   532              63     -12.4577539  -12.45848  0.01%  14.3    4s

Explored 13034 nodes (185373 simplex iterations) in 4.27 seconds
Thread count was 32 (of 72 available processors)

Solution count 10: -12.4578 -12.4578 -12.4578 ... -12.4577

Optimal solution found (tolerance 1.00e-04)
Best objective -1.245775391147e+01, best bound -1.245848459848e+01, gap 0.0059%

User-callback calls 26870, time in user-callback 0.00 sec



objective value: -12.457753911474192
objective bound: -12.458484598476641
x_opt: [1.0, 1.0, 0.1376218987950335, 0.1406270299190398, 0.0, 0.0, 1.0, 0.0, 0.0, 0.0, 1.0, 0.0, 1.0, 1.0, 0.0, 1.0, 0.0, 1.0000000000000002, 0.0, 0.0, 0.6520089996150857, 0.7338419991546112, 0.0, 0.7541592767686511, 0.0, 0.7257947714144195, 0.0, 1.0, 0.0, 0.0, 1.0, 0.8228718324426663, 0.0, 0.2678398336584432, 1.0, 1.00000000000796, 0.18995570284901794, 1.0, 0.0, 1.0, 1.0, 0.0, 1.0, 0.0, 0.0, 0.0, 0.7654458822099497, 0.056885374800843706, 1.0, 0.00768744739822637]
GUROBI solution time: 4.2723071575164795




